s td 14 3 15
b 1 1 8
b 2 3 5 8
b 3 6 10
b 4 2 6
b 5 2 8
b 6 11 12
b 7 12 13
b 8 7 13
b 9 5 7 8
b 10 5 8 14
b 11 8 14
b 12 4
b 13 9
b 14 15
1 11
1 12
1 13
1 14
2 10
3 4
4 5
5 11
6 7
7 8
8 9
9 10
10 11
